# Solution for model Bin Packing Problem
# Objective value = 400
z_0 1
z_1 1
I_0_1_0 0
I_0_2_0 0
I_0_3_0 1
I_0_4_0 0
I_0_5_0 0
I_0_6_0 0
I_0_7_0 1
I_0_8_0 1
I_0_9_0 0
I_0_10_0 1
I_0_11_0 0
I_0_12_0 1
I_0_13_0 0
I_0_14_0 0
I_0_15_0 1
I_0_16_0 0
I_1_0_0 0
I_1_2_0 0
I_1_3_0 0
I_1_4_0 0
I_1_5_0 0
I_1_6_0 0
I_1_7_0 1
I_1_8_0 0
I_1_9_0 0
I_1_10_0 1
I_1_11_0 1
I_1_12_0 1
I_1_13_0 1
I_1_14_0 1
I_1_15_0 1
I_1_16_0 0
I_2_0_0 0
I_2_1_0 0
I_2_3_0 0
I_2_4_0 0
I_2_5_0 0
I_2_6_0 0
I_2_7_0 0
I_2_8_0 1
I_2_9_0 0
I_2_10_0 0
I_2_11_0 1
I_2_12_0 0
I_2_13_0 0
I_2_14_0 0
I_2_15_0 1
I_2_16_0 0
I_3_0_0 0
I_3_1_0 0
I_3_2_0 0
I_3_4_0 0
I_3_5_0 0
I_3_6_0 0
I_3_7_0 0
I_3_8_0 1
I_3_9_0 0
I_3_10_0 0
I_3_11_0 0
I_3_12_0 0
I_3_13_0 0
I_3_14_0 0
I_3_15_0 0
I_3_16_0 0
I_4_0_0 0
I_4_1_0 0
I_4_2_0 1
I_4_3_0 1
I_4_5_0 0
I_4_6_0 0
I_4_7_0 0
I_4_8_0 1
I_4_9_0 0
I_4_10_0 1
I_4_11_0 0
I_4_12_0 0
I_4_13_0 0
I_4_14_0 0
I_4_15_0 0
I_4_16_0 0
I_5_0_0 0
I_5_1_0 0
I_5_2_0 1
I_5_3_0 0
I_5_4_0 0
I_5_6_0 0
I_5_7_0 0
I_5_8_0 1
I_5_9_0 0
I_5_10_0 0
I_5_11_0 0
I_5_12_0 0
I_5_13_0 0
I_5_14_0 0
I_5_15_0 0
I_5_16_0 0
I_6_0_0 0
I_6_1_0 0
I_6_2_0 0
I_6_3_0 0
I_6_4_0 0
I_6_5_0 0
I_6_7_0 0
I_6_8_0 0
I_6_9_0 0
I_6_10_0 0
I_6_11_0 0
I_6_12_0 0
I_6_13_0 0
I_6_14_0 0
I_6_15_0 0
I_6_16_0 0
I_7_0_0 0
I_7_1_0 0
I_7_2_0 0
I_7_3_0 1
I_7_4_0 0
I_7_5_0 0
I_7_6_0 0
I_7_8_0 0
I_7_9_0 0
I_7_10_0 1
I_7_11_0 1
I_7_12_0 1
I_7_13_0 0
I_7_14_0 0
I_7_15_0 1
I_7_16_0 0
I_8_0_0 0
I_8_1_0 0
I_8_2_0 0
I_8_3_0 0
I_8_4_0 0
I_8_5_0 0
I_8_6_0 0
I_8_7_0 0
I_8_9_0 0
I_8_10_0 0
I_8_11_0 0
I_8_12_0 0
I_8_13_0 0
I_8_14_0 0
I_8_15_0 0
I_8_16_0 0
I_9_0_0 0
I_9_1_0 0
I_9_2_0 0
I_9_3_0 0
I_9_4_0 0
I_9_5_0 0
I_9_6_0 0
I_9_7_0 0
I_9_8_0 0
I_9_10_0 0
I_9_11_0 0
I_9_12_0 0
I_9_13_0 0
I_9_14_0 0
I_9_15_0 1
I_9_16_0 0
I_10_0_0 0
I_10_1_0 0
I_10_2_0 0
I_10_3_0 1
I_10_4_0 0
I_10_5_0 0
I_10_6_0 0
I_10_7_0 0
I_10_8_0 1
I_10_9_0 0
I_10_11_0 0
I_10_12_0 0
I_10_13_0 0
I_10_14_0 0
I_10_15_0 0
I_10_16_0 0
I_11_0_0 0
I_11_1_0 0
I_11_2_0 0
I_11_3_0 0
I_11_4_0 0
I_11_5_0 0
I_11_6_0 0
I_11_7_0 0
I_11_8_0 1
I_11_9_0 0
I_11_10_0 1
I_11_12_0 0
I_11_13_0 0
I_11_14_0 0
I_11_15_0 0
I_11_16_0 0
I_12_0_0 0
I_12_1_0 0
I_12_2_0 0
I_12_3_0 0
I_12_4_0 0
I_12_5_0 0
I_12_6_0 0
I_12_7_0 0
I_12_8_0 0
I_12_9_0 0
I_12_10_0 1
I_12_11_0 1
I_12_13_0 1
I_12_14_0 0
I_12_15_0 1
I_12_16_0 0
I_13_0_0 0
I_13_1_0 0
I_13_2_0 0
I_13_3_0 0
I_13_4_0 0
I_13_5_0 0
I_13_6_0 0
I_13_7_0 0
I_13_8_0 0
I_13_9_0 0
I_13_10_0 1
I_13_11_0 1
I_13_12_0 0
I_13_14_0 0
I_13_15_0 0
I_13_16_0 0
I_14_0_0 0
I_14_1_0 0
I_14_2_0 0
I_14_3_0 1
I_14_4_0 0
I_14_5_0 0
I_14_6_0 0
I_14_7_0 1
I_14_8_0 1
I_14_9_0 0
I_14_10_0 1
I_14_11_0 1
I_14_12_0 1
I_14_13_0 1
I_14_15_0 1
I_14_16_0 0
I_15_0_0 0
I_15_1_0 0
I_15_2_0 0
I_15_3_0 1
I_15_4_0 0
I_15_5_0 0
I_15_6_0 0
I_15_7_0 0
I_15_8_0 1
I_15_9_0 0
I_15_10_0 0
I_15_11_0 0
I_15_12_0 0
I_15_13_0 0
I_15_14_0 0
I_15_16_0 0
I_16_0_0 1
I_16_1_0 1
I_16_2_0 1
I_16_3_0 1
I_16_4_0 1
I_16_5_0 0
I_16_6_0 0
I_16_7_0 1
I_16_8_0 1
I_16_9_0 0
I_16_10_0 1
I_16_11_0 1
I_16_12_0 1
I_16_13_0 1
I_16_14_0 1
I_16_15_0 1
I_0_1_1 0
I_0_2_1 0
I_0_3_1 1
I_0_4_1 1
I_0_5_1 0
I_0_6_1 1
I_0_7_1 0
I_0_8_1 1
I_0_9_1 0
I_0_10_1 0
I_0_11_1 0
I_0_12_1 0
I_0_13_1 0
I_0_14_1 0
I_0_15_1 0
I_0_16_1 0
I_1_0_1 0
I_1_2_1 0
I_1_3_1 0
I_1_4_1 1
I_1_5_1 1
I_1_6_1 1
I_1_7_1 1
I_1_8_1 0
I_1_9_1 1
I_1_10_1 0
I_1_11_1 1
I_1_12_1 1
I_1_13_1 0
I_1_14_1 1
I_1_15_1 0
I_1_16_1 0
I_2_0_1 1
I_2_1_1 1
I_2_3_1 1
I_2_4_1 1
I_2_5_1 0
I_2_6_1 1
I_2_7_1 0
I_2_8_1 1
I_2_9_1 0
I_2_10_1 0
I_2_11_1 0
I_2_12_1 1
I_2_13_1 1
I_2_14_1 1
I_2_15_1 1
I_2_16_1 0
I_3_0_1 0
I_3_1_1 0
I_3_2_1 0
I_3_4_1 1
I_3_5_1 0
I_3_6_1 0
I_3_7_1 0
I_3_8_1 1
I_3_9_1 0
I_3_10_1 0
I_3_11_1 0
I_3_12_1 1
I_3_13_1 0
I_3_14_1 0
I_3_15_1 0
I_3_16_1 0
I_4_0_1 0
I_4_1_1 0
I_4_2_1 0
I_4_3_1 0
I_4_5_1 0
I_4_6_1 0
I_4_7_1 0
I_4_8_1 1
I_4_9_1 0
I_4_10_1 0
I_4_11_1 1
I_4_12_1 0
I_4_13_1 0
I_4_14_1 0
I_4_15_1 0
I_4_16_1 0
I_5_0_1 1
I_5_1_1 0
I_5_2_1 1
I_5_3_1 1
I_5_4_1 1
I_5_6_1 1
I_5_7_1 0
I_5_8_1 1
I_5_9_1 0
I_5_10_1 0
I_5_11_1 0
I_5_12_1 1
I_5_13_1 0
I_5_14_1 0
I_5_15_1 0
I_5_16_1 0
I_6_0_1 0
I_6_1_1 0
I_6_2_1 0
I_6_3_1 0
I_6_4_1 1
I_6_5_1 0
I_6_7_1 0
I_6_8_1 1
I_6_9_1 0
I_6_10_1 0
I_6_11_1 0
I_6_12_1 0
I_6_13_1 0
I_6_14_1 0
I_6_15_1 0
I_6_16_1 0
I_7_0_1 1
I_7_1_1 0
I_7_2_1 1
I_7_3_1 1
I_7_4_1 1
I_7_5_1 0
I_7_6_1 1
I_7_8_1 1
I_7_9_1 0
I_7_10_1 0
I_7_11_1 1
I_7_12_1 1
I_7_13_1 0
I_7_14_1 1
I_7_15_1 0
I_7_16_1 0
I_8_0_1 0
I_8_1_1 0
I_8_2_1 0
I_8_3_1 0
I_8_4_1 0
I_8_5_1 0
I_8_6_1 0
I_8_7_1 0
I_8_9_1 0
I_8_10_1 0
I_8_11_1 0
I_8_12_1 0
I_8_13_1 0
I_8_14_1 0
I_8_15_1 0
I_8_16_1 0
I_9_0_1 1
I_9_1_1 0
I_9_2_1 1
I_9_3_1 1
I_9_4_1 1
I_9_5_1 1
I_9_6_1 1
I_9_7_1 0
I_9_8_1 1
I_9_10_1 0
I_9_11_1 0
I_9_12_1 1
I_9_13_1 0
I_9_14_1 0
I_9_15_1 0
I_9_16_1 0
I_10_0_1 0
I_10_1_1 0
I_10_2_1 0
I_10_3_1 0
I_10_4_1 0
I_10_5_1 0
I_10_6_1 0
I_10_7_1 0
I_10_8_1 0
I_10_9_1 0
I_10_11_1 0
I_10_12_1 0
I_10_13_1 0
I_10_14_1 0
I_10_15_1 0
I_10_16_1 0
I_11_0_1 0
I_11_1_1 0
I_11_2_1 1
I_11_3_1 0
I_11_4_1 0
I_11_5_1 1
I_11_6_1 1
I_11_7_1 0
I_11_8_1 0
I_11_9_1 0
I_11_10_1 0
I_11_12_1 1
I_11_13_1 0
I_11_14_1 0
I_11_15_1 0
I_11_16_1 0
I_12_0_1 1
I_12_1_1 0
I_12_2_1 0
I_12_3_1 0
I_12_4_1 1
I_12_5_1 0
I_12_6_1 0
I_12_7_1 0
I_12_8_1 1
I_12_9_1 0
I_12_10_1 0
I_12_11_1 0
I_12_13_1 0
I_12_14_1 0
I_12_15_1 1
I_12_16_1 0
I_13_0_1 0
I_13_1_1 0
I_13_2_1 0
I_13_3_1 0
I_13_4_1 1
I_13_5_1 0
I_13_6_1 1
I_13_7_1 1
I_13_8_1 0
I_13_9_1 0
I_13_10_1 0
I_13_11_1 1
I_13_12_1 1
I_13_14_1 1
I_13_15_1 1
I_13_16_1 0
I_14_0_1 1
I_14_1_1 0
I_14_2_1 0
I_14_3_1 1
I_14_4_1 1
I_14_5_1 1
I_14_6_1 1
I_14_7_1 0
I_14_8_1 1
I_14_9_1 1
I_14_10_1 0
I_14_11_1 1
I_14_12_1 1
I_14_13_1 0
I_14_15_1 1
I_14_16_1 0
I_15_0_1 0
I_15_1_1 0
I_15_2_1 0
I_15_3_1 0
I_15_4_1 0
I_15_5_1 0
I_15_6_1 1
I_15_7_1 0
I_15_8_1 0
I_15_9_1 0
I_15_10_1 0
I_15_11_1 0
I_15_12_1 0
I_15_13_1 0
I_15_14_1 0
I_15_16_1 0
I_16_0_1 0
I_16_1_1 0
I_16_2_1 0
I_16_3_1 0
I_16_4_1 0
I_16_5_1 0
I_16_6_1 0
I_16_7_1 0
I_16_8_1 0
I_16_9_1 0
I_16_10_1 0
I_16_11_1 0
I_16_12_1 0
I_16_13_1 0
I_16_14_1 0
I_16_15_1 0
b_0_1_0 0
b_0_2_0 0
b_0_3_0 0
b_0_4_0 1
b_0_5_0 0
b_0_6_0 0
b_0_7_0 0
b_0_8_0 0
b_0_9_0 0
b_0_10_0 0
b_0_11_0 0
b_0_12_0 1
b_0_13_0 0
b_0_14_0 1
b_0_15_0 0
b_0_16_0 0
b_1_0_0 0
b_1_2_0 0
b_1_3_0 0
b_1_4_0 0
b_1_5_0 0
b_1_6_0 0
b_1_7_0 0
b_1_8_0 0
b_1_9_0 0
b_1_10_0 0
b_1_11_0 0
b_1_12_0 0
b_1_13_0 0
b_1_14_0 0
b_1_15_0 0
b_1_16_0 0
b_2_0_0 0
b_2_1_0 0
b_2_3_0 1
b_2_4_0 0
b_2_5_0 0
b_2_6_0 0
b_2_7_0 0
b_2_8_0 0
b_2_9_0 0
b_2_10_0 1
b_2_11_0 0
b_2_12_0 1
b_2_13_0 0
b_2_14_0 0
b_2_15_0 0
b_2_16_0 0
b_3_0_0 0
b_3_1_0 0
b_3_2_0 0
b_3_4_0 1
b_3_5_0 0
b_3_6_0 0
b_3_7_0 0
b_3_8_0 0
b_3_9_0 0
b_3_10_0 0
b_3_11_0 0
b_3_12_0 1
b_3_13_0 0
b_3_14_0 0
b_3_15_0 0
b_3_16_0 0
b_4_0_0 0
b_4_1_0 0
b_4_2_0 0
b_4_3_0 0
b_4_5_0 0
b_4_6_0 0
b_4_7_0 1
b_4_8_0 0
b_4_9_0 0
b_4_10_0 0
b_4_11_0 0
b_4_12_0 1
b_4_13_0 0
b_4_14_0 0
b_4_15_0 0
b_4_16_0 0
b_5_0_0 0
b_5_1_0 0
b_5_2_0 0
b_5_3_0 1
b_5_4_0 1
b_5_6_0 0
b_5_7_0 1
b_5_8_0 0
b_5_9_0 0
b_5_10_0 1
b_5_11_0 1
b_5_12_0 1
b_5_13_0 0
b_5_14_0 0
b_5_15_0 0
b_5_16_0 1
b_6_0_0 0
b_6_1_0 0
b_6_2_0 0
b_6_3_0 0
b_6_4_0 0
b_6_5_0 0
b_6_7_0 0
b_6_8_0 0
b_6_9_0 0
b_6_10_0 0
b_6_11_0 0
b_6_12_0 0
b_6_13_0 0
b_6_14_0 0
b_6_15_0 0
b_6_16_0 0
b_7_0_0 0
b_7_1_0 0
b_7_2_0 1
b_7_3_0 0
b_7_4_0 0
b_7_5_0 0
b_7_6_0 0
b_7_8_0 0
b_7_9_0 1
b_7_10_0 0
b_7_11_0 0
b_7_12_0 1
b_7_13_0 1
b_7_14_0 0
b_7_15_0 0
b_7_16_0 0
b_8_0_0 0
b_8_1_0 0
b_8_2_0 0
b_8_3_0 0
b_8_4_0 1
b_8_5_0 0
b_8_6_0 0
b_8_7_0 1
b_8_9_0 0
b_8_10_0 0
b_8_11_0 0
b_8_12_0 1
b_8_13_0 0
b_8_14_0 0
b_8_15_0 0
b_8_16_0 0
b_9_0_0 0
b_9_1_0 0
b_9_2_0 0
b_9_3_0 0
b_9_4_0 0
b_9_5_0 0
b_9_6_0 0
b_9_7_0 0
b_9_8_0 0
b_9_10_0 0
b_9_11_0 0
b_9_12_0 0
b_9_13_0 0
b_9_14_0 0
b_9_15_0 0
b_9_16_0 1
b_10_0_0 0
b_10_1_0 0
b_10_2_0 0
b_10_3_0 0
b_10_4_0 0
b_10_5_0 0
b_10_6_0 0
b_10_7_0 0
b_10_8_0 0
b_10_9_0 0
b_10_11_0 0
b_10_12_0 0
b_10_13_0 0
b_10_14_0 0
b_10_15_0 0
b_10_16_0 0
b_11_0_0 0
b_11_1_0 0
b_11_2_0 0
b_11_3_0 0
b_11_4_0 1
b_11_5_0 0
b_11_6_0 0
b_11_7_0 0
b_11_8_0 0
b_11_9_0 0
b_11_10_0 0
b_11_12_0 0
b_11_13_0 0
b_11_14_0 0
b_11_15_0 0
b_11_16_0 0
b_12_0_0 0
b_12_1_0 0
b_12_2_0 0
b_12_3_0 0
b_12_4_0 0
b_12_5_0 0
b_12_6_0 0
b_12_7_0 0
b_12_8_0 0
b_12_9_0 0
b_12_10_0 0
b_12_11_0 0
b_12_13_0 0
b_12_14_0 0
b_12_15_0 0
b_12_16_0 0
b_13_0_0 0
b_13_1_0 0
b_13_2_0 0
b_13_3_0 0
b_13_4_0 0
b_13_5_0 0
b_13_6_0 0
b_13_7_0 0
b_13_8_0 0
b_13_9_0 0
b_13_10_0 0
b_13_11_0 0
b_13_12_0 0
b_13_14_0 0
b_13_15_0 0
b_13_16_0 0
b_14_0_0 0
b_14_1_0 0
b_14_2_0 0
b_14_3_0 0
b_14_4_0 0
b_14_5_0 0
b_14_6_0 0
b_14_7_0 0
b_14_8_0 0
b_14_9_0 0
b_14_10_0 0
b_14_11_0 0
b_14_12_0 0
b_14_13_0 0
b_14_15_0 0
b_14_16_0 0
b_15_0_0 0
b_15_1_0 0
b_15_2_0 0
b_15_3_0 0
b_15_4_0 1
b_15_5_0 0
b_15_6_0 0
b_15_7_0 0
b_15_8_0 0
b_15_9_0 0
b_15_10_0 1
b_15_11_0 1
b_15_12_0 0
b_15_13_0 1
b_15_14_0 0
b_15_16_0 0
b_16_0_0 0
b_16_1_0 0
b_16_2_0 0
b_16_3_0 0
b_16_4_0 0
b_16_5_0 0
b_16_6_0 0
b_16_7_0 0
b_16_8_0 0
b_16_9_0 0
b_16_10_0 0
b_16_11_0 0
b_16_12_0 0
b_16_13_0 0
b_16_14_0 0
b_16_15_0 0
b_0_1_1 0
b_0_2_1 0
b_0_3_1 1
b_0_4_1 0
b_0_5_1 1
b_0_6_1 0
b_0_7_1 0
b_0_8_1 0
b_0_9_1 1
b_0_10_1 1
b_0_11_1 0
b_0_12_1 0
b_0_13_1 0
b_0_14_1 0
b_0_15_1 1
b_0_16_1 1
b_1_0_1 0
b_1_2_1 0
b_1_3_1 0
b_1_4_1 0
b_1_5_1 0
b_1_6_1 0
b_1_7_1 0
b_1_8_1 0
b_1_9_1 1
b_1_10_1 0
b_1_11_1 0
b_1_12_1 0
b_1_13_1 0
b_1_14_1 0
b_1_15_1 0
b_1_16_1 0
b_2_0_1 0
b_2_1_1 0
b_2_3_1 0
b_2_4_1 0
b_2_5_1 0
b_2_6_1 0
b_2_7_1 0
b_2_8_1 0
b_2_9_1 0
b_2_10_1 1
b_2_11_1 0
b_2_12_1 0
b_2_13_1 0
b_2_14_1 0
b_2_15_1 0
b_2_16_1 1
b_3_0_1 0
b_3_1_1 0
b_3_2_1 0
b_3_4_1 0
b_3_5_1 0
b_3_6_1 0
b_3_7_1 0
b_3_8_1 0
b_3_9_1 0
b_3_10_1 1
b_3_11_1 0
b_3_12_1 0
b_3_13_1 0
b_3_14_1 0
b_3_15_1 1
b_3_16_1 1
b_4_0_1 0
b_4_1_1 0
b_4_2_1 0
b_4_3_1 0
b_4_5_1 0
b_4_6_1 0
b_4_7_1 0
b_4_8_1 0
b_4_9_1 0
b_4_10_1 1
b_4_11_1 0
b_4_12_1 0
b_4_13_1 0
b_4_14_1 0
b_4_15_1 1
b_4_16_1 1
b_5_0_1 0
b_5_1_1 0
b_5_2_1 0
b_5_3_1 0
b_5_4_1 0
b_5_6_1 0
b_5_7_1 0
b_5_8_1 0
b_5_9_1 0
b_5_10_1 1
b_5_11_1 0
b_5_12_1 0
b_5_13_1 0
b_5_14_1 0
b_5_15_1 0
b_5_16_1 1
b_6_0_1 0
b_6_1_1 0
b_6_2_1 0
b_6_3_1 1
b_6_4_1 0
b_6_5_1 1
b_6_7_1 0
b_6_8_1 0
b_6_9_1 1
b_6_10_1 1
b_6_11_1 0
b_6_12_1 0
b_6_13_1 0
b_6_14_1 0
b_6_15_1 0
b_6_16_1 1
b_7_0_1 0
b_7_1_1 0
b_7_2_1 0
b_7_3_1 0
b_7_4_1 0
b_7_5_1 1
b_7_6_1 0
b_7_8_1 0
b_7_9_1 1
b_7_10_1 1
b_7_11_1 0
b_7_12_1 0
b_7_13_1 0
b_7_14_1 0
b_7_15_1 0
b_7_16_1 1
b_8_0_1 0
b_8_1_1 0
b_8_2_1 0
b_8_3_1 0
b_8_4_1 0
b_8_5_1 0
b_8_6_1 0
b_8_7_1 0
b_8_9_1 0
b_8_10_1 1
b_8_11_1 0
b_8_12_1 0
b_8_13_1 0
b_8_14_1 0
b_8_15_1 1
b_8_16_1 1
b_9_0_1 0
b_9_1_1 0
b_9_2_1 0
b_9_3_1 0
b_9_4_1 0
b_9_5_1 0
b_9_6_1 0
b_9_7_1 0
b_9_8_1 0
b_9_10_1 0
b_9_11_1 0
b_9_12_1 0
b_9_13_1 0
b_9_14_1 0
b_9_15_1 0
b_9_16_1 1
b_10_0_1 0
b_10_1_1 0
b_10_2_1 0
b_10_3_1 0
b_10_4_1 0
b_10_5_1 0
b_10_6_1 0
b_10_7_1 0
b_10_8_1 0
b_10_9_1 1
b_10_11_1 1
b_10_12_1 1
b_10_13_1 0
b_10_14_1 1
b_10_15_1 1
b_10_16_1 1
b_11_0_1 0
b_11_1_1 0
b_11_2_1 0
b_11_3_1 0
b_11_4_1 0
b_11_5_1 0
b_11_6_1 0
b_11_7_1 0
b_11_8_1 0
b_11_9_1 1
b_11_10_1 0
b_11_12_1 0
b_11_13_1 0
b_11_14_1 0
b_11_15_1 0
b_11_16_1 1
b_12_0_1 0
b_12_1_1 0
b_12_2_1 0
b_12_3_1 0
b_12_4_1 0
b_12_5_1 1
b_12_6_1 0
b_12_7_1 0
b_12_8_1 0
b_12_9_1 1
b_12_10_1 0
b_12_11_1 0
b_12_13_1 0
b_12_14_1 0
b_12_15_1 0
b_12_16_1 1
b_13_0_1 0
b_13_1_1 0
b_13_2_1 0
b_13_3_1 0
b_13_4_1 0
b_13_5_1 1
b_13_6_1 0
b_13_7_1 0
b_13_8_1 0
b_13_9_1 1
b_13_10_1 0
b_13_11_1 0
b_13_12_1 0
b_13_14_1 0
b_13_15_1 0
b_13_16_1 0
b_14_0_1 0
b_14_1_1 0
b_14_2_1 0
b_14_3_1 0
b_14_4_1 0
b_14_5_1 0
b_14_6_1 0
b_14_7_1 0
b_14_8_1 0
b_14_9_1 0
b_14_10_1 0
b_14_11_1 0
b_14_12_1 0
b_14_13_1 0
b_14_15_1 0
b_14_16_1 1
b_15_0_1 0
b_15_1_1 1
b_15_2_1 0
b_15_3_1 0
b_15_4_1 0
b_15_5_1 1
b_15_6_1 0
b_15_7_1 1
b_15_8_1 0
b_15_9_1 1
b_15_10_1 0
b_15_11_1 0
b_15_12_1 0
b_15_13_1 0
b_15_14_1 0
b_15_16_1 1
b_16_0_1 0
b_16_1_1 0
b_16_2_1 0
b_16_3_1 0
b_16_4_1 0
b_16_5_1 0
b_16_6_1 0
b_16_7_1 0
b_16_8_1 0
b_16_9_1 0
b_16_10_1 0
b_16_11_1 0
b_16_12_1 0
b_16_13_1 0
b_16_14_1 0
b_16_15_1 0
p_0_0 0
p_0_1 1
p_1_0 1
p_1_1 0
p_2_0 0
p_2_1 1
p_3_0 0
p_3_1 1
p_4_0 0
p_4_1 1
p_5_0 0
p_5_1 1
p_6_0 0
p_6_1 1
p_7_0 0
p_7_1 1
p_8_0 0
p_8_1 1
p_9_0 0
p_9_1 1
p_10_0 1
p_10_1 0
p_11_0 1
p_11_1 0
p_12_0 1
p_12_1 0
p_13_0 1
p_13_1 0
p_14_0 1
p_14_1 0
p_15_0 1
p_15_1 0
p_16_0 1
p_16_1 0
rho_0 0
g_0 1
gamma_0_0 0
gamma_0_1 0
rho_1 1
g_1 1
gamma_1_0 0
gamma_1_1 0
rho_2 1
g_2 1
gamma_2_0 0
gamma_2_1 0
rho_3 1
g_3 0
gamma_3_0 0
gamma_3_1 0
rho_4 1
g_4 1
gamma_4_0 0
gamma_4_1 0
rho_5 1
g_5 0
gamma_5_0 0
gamma_5_1 0
rho_6 0
g_6 1
gamma_6_0 0
gamma_6_1 0
rho_7 0
g_7 1
gamma_7_0 0
gamma_7_1 0
rho_8 1
g_8 1
gamma_8_0 0
gamma_8_1 0
rho_9 1
g_9 0
gamma_9_0 0
gamma_9_1 0
rho_10 1
g_10 0
gamma_10_0 0
gamma_10_1 0
rho_11 1
g_11 0
gamma_11_0 0
gamma_11_1 0
rho_12 1
g_12 1
gamma_12_0 0
gamma_12_1 0
rho_13 1
g_13 0
gamma_13_0 0
gamma_13_1 0
rho_14 0
g_14 1
gamma_14_0 0
gamma_14_1 0
rho_15 0
g_15 1
gamma_15_0 0
gamma_15_1 0
rho_16 1
g_16 1
gamma_16_0 0
gamma_16_1 0
radioactive_0 0
radioactive_1 1
B1_0_1_0 0
B2_0_1_0 0
B1_0_2_0 0
B2_0_2_0 0
B1_0_3_0 0
B2_0_3_0 0
B1_0_4_0 0
B2_0_4_0 0
B1_0_5_0 0
B2_0_5_0 0
B1_0_6_0 0
B2_0_6_0 0
B1_0_7_0 0
B2_0_7_0 0
B1_0_8_0 0
B2_0_8_0 0
B1_0_9_0 0
B2_0_9_0 0
B1_0_10_0 0
B2_0_10_0 0
B1_0_11_0 0
B2_0_11_0 0
B1_0_12_0 0
B2_0_12_0 0
B1_0_13_0 0
B2_0_13_0 0
B1_0_14_0 0
B2_0_14_0 0
B1_0_15_0 0
B2_0_15_0 0
B1_0_16_0 0
B2_0_16_0 0
B1_1_0_0 0
B2_1_0_0 0
B1_1_2_0 0
B2_1_2_0 0
B1_1_3_0 0
B2_1_3_0 0
B1_1_4_0 0
B2_1_4_0 0
B1_1_5_0 0
B2_1_5_0 0
B1_1_6_0 0
B2_1_6_0 0
B1_1_7_0 0
B2_1_7_0 0
B1_1_8_0 0
B2_1_8_0 0
B1_1_9_0 0
B2_1_9_0 0
B1_1_10_0 0
B2_1_10_0 0
B1_1_11_0 0
B2_1_11_0 0
B1_1_12_0 0
B2_1_12_0 0
B1_1_13_0 0
B2_1_13_0 0
B1_1_14_0 0
B2_1_14_0 0
B1_1_15_0 0
B2_1_15_0 0
B1_1_16_0 0
B2_1_16_0 0
B1_2_0_0 0
B2_2_0_0 0
B1_2_1_0 0
B2_2_1_0 0
B1_2_3_0 0
B2_2_3_0 0
B1_2_4_0 0
B2_2_4_0 0
B1_2_5_0 0
B2_2_5_0 0
B1_2_6_0 0
B2_2_6_0 0
B1_2_7_0 0
B2_2_7_0 0
B1_2_8_0 0
B2_2_8_0 0
B1_2_9_0 0
B2_2_9_0 0
B1_2_10_0 0
B2_2_10_0 0
B1_2_11_0 0
B2_2_11_0 0
B1_2_12_0 0
B2_2_12_0 0
B1_2_13_0 0
B2_2_13_0 0
B1_2_14_0 0
B2_2_14_0 0
B1_2_15_0 0
B2_2_15_0 0
B1_2_16_0 0
B2_2_16_0 0
B1_3_0_0 0
B2_3_0_0 0
B1_3_1_0 0
B2_3_1_0 0
B1_3_2_0 0
B2_3_2_0 0
B1_3_4_0 0
B2_3_4_0 0
B1_3_5_0 0
B2_3_5_0 0
B1_3_6_0 0
B2_3_6_0 0
B1_3_7_0 0
B2_3_7_0 0
B1_3_8_0 0
B2_3_8_0 0
B1_3_9_0 0
B2_3_9_0 0
B1_3_10_0 0
B2_3_10_0 0
B1_3_11_0 0
B2_3_11_0 0
B1_3_12_0 0
B2_3_12_0 0
B1_3_13_0 0
B2_3_13_0 0
B1_3_14_0 0
B2_3_14_0 0
B1_3_15_0 0
B2_3_15_0 0
B1_3_16_0 0
B2_3_16_0 0
B1_4_0_0 0
B2_4_0_0 0
B1_4_1_0 0
B2_4_1_0 0
B1_4_2_0 0
B2_4_2_0 0
B1_4_3_0 0
B2_4_3_0 0
B1_4_5_0 0
B2_4_5_0 0
B1_4_6_0 0
B2_4_6_0 0
B1_4_7_0 0
B2_4_7_0 0
B1_4_8_0 0
B2_4_8_0 0
B1_4_9_0 0
B2_4_9_0 0
B1_4_10_0 0
B2_4_10_0 0
B1_4_11_0 0
B2_4_11_0 0
B1_4_12_0 0
B2_4_12_0 0
B1_4_13_0 0
B2_4_13_0 0
B1_4_14_0 0
B2_4_14_0 0
B1_4_15_0 0
B2_4_15_0 0
B1_4_16_0 0
B2_4_16_0 0
B1_5_0_0 0
B2_5_0_0 0
B1_5_1_0 0
B2_5_1_0 0
B1_5_2_0 0
B2_5_2_0 0
B1_5_3_0 0
B2_5_3_0 0
B1_5_4_0 0
B2_5_4_0 0
B1_5_6_0 0
B2_5_6_0 0
B1_5_7_0 0
B2_5_7_0 0
B1_5_8_0 0
B2_5_8_0 0
B1_5_9_0 0
B2_5_9_0 0
B1_5_10_0 0
B2_5_10_0 0
B1_5_11_0 0
B2_5_11_0 0
B1_5_12_0 0
B2_5_12_0 0
B1_5_13_0 0
B2_5_13_0 0
B1_5_14_0 0
B2_5_14_0 0
B1_5_15_0 0
B2_5_15_0 0
B1_5_16_0 0
B2_5_16_0 0
B1_6_0_0 0
B2_6_0_0 0
B1_6_1_0 0
B2_6_1_0 0
B1_6_2_0 0
B2_6_2_0 0
B1_6_3_0 0
B2_6_3_0 0
B1_6_4_0 0
B2_6_4_0 0
B1_6_5_0 0
B2_6_5_0 0
B1_6_7_0 0
B2_6_7_0 0
B1_6_8_0 0
B2_6_8_0 0
B1_6_9_0 0
B2_6_9_0 0
B1_6_10_0 0
B2_6_10_0 0
B1_6_11_0 0
B2_6_11_0 0
B1_6_12_0 0
B2_6_12_0 0
B1_6_13_0 0
B2_6_13_0 0
B1_6_14_0 0
B2_6_14_0 0
B1_6_15_0 0
B2_6_15_0 0
B1_6_16_0 0
B2_6_16_0 0
B1_7_0_0 0
B2_7_0_0 0
B1_7_1_0 0
B2_7_1_0 0
B1_7_2_0 0
B2_7_2_0 0
B1_7_3_0 0
B2_7_3_0 0
B1_7_4_0 0
B2_7_4_0 0
B1_7_5_0 0
B2_7_5_0 0
B1_7_6_0 0
B2_7_6_0 0
B1_7_8_0 0
B2_7_8_0 0
B1_7_9_0 0
B2_7_9_0 0
B1_7_10_0 0
B2_7_10_0 0
B1_7_11_0 0
B2_7_11_0 0
B1_7_12_0 0
B2_7_12_0 0
B1_7_13_0 0
B2_7_13_0 0
B1_7_14_0 0
B2_7_14_0 0
B1_7_15_0 0
B2_7_15_0 0
B1_7_16_0 0
B2_7_16_0 0
B1_8_0_0 0
B2_8_0_0 0
B1_8_1_0 0
B2_8_1_0 0
B1_8_2_0 0
B2_8_2_0 0
B1_8_3_0 0
B2_8_3_0 0
B1_8_4_0 0
B2_8_4_0 0
B1_8_5_0 0
B2_8_5_0 0
B1_8_6_0 0
B2_8_6_0 0
B1_8_7_0 0
B2_8_7_0 0
B1_8_9_0 0
B2_8_9_0 0
B1_8_10_0 0
B2_8_10_0 0
B1_8_11_0 0
B2_8_11_0 0
B1_8_12_0 0
B2_8_12_0 0
B1_8_13_0 0
B2_8_13_0 0
B1_8_14_0 0
B2_8_14_0 0
B1_8_15_0 0
B2_8_15_0 0
B1_8_16_0 0
B2_8_16_0 0
B1_9_0_0 0
B2_9_0_0 0
B1_9_1_0 0
B2_9_1_0 0
B1_9_2_0 0
B2_9_2_0 0
B1_9_3_0 0
B2_9_3_0 0
B1_9_4_0 0
B2_9_4_0 0
B1_9_5_0 0
B2_9_5_0 0
B1_9_6_0 0
B2_9_6_0 0
B1_9_7_0 0
B2_9_7_0 0
B1_9_8_0 0
B2_9_8_0 0
B1_9_10_0 0
B2_9_10_0 0
B1_9_11_0 0
B2_9_11_0 0
B1_9_12_0 0
B2_9_12_0 0
B1_9_13_0 0
B2_9_13_0 0
B1_9_14_0 0
B2_9_14_0 0
B1_9_15_0 0
B2_9_15_0 0
B1_9_16_0 0
B2_9_16_0 0
B1_10_0_0 0
B2_10_0_0 0
B1_10_1_0 0
B2_10_1_0 0
B1_10_2_0 0
B2_10_2_0 0
B1_10_3_0 0
B2_10_3_0 0
B1_10_4_0 0
B2_10_4_0 0
B1_10_5_0 0
B2_10_5_0 0
B1_10_6_0 0
B2_10_6_0 0
B1_10_7_0 0
B2_10_7_0 0
B1_10_8_0 0
B2_10_8_0 0
B1_10_9_0 0
B2_10_9_0 0
B1_10_11_0 0
B2_10_11_0 0
B1_10_12_0 0
B2_10_12_0 0
B1_10_13_0 0
B2_10_13_0 0
B1_10_14_0 0
B2_10_14_0 0
B1_10_15_0 1
B2_10_15_0 1
B1_10_16_0 0
B2_10_16_0 0
B1_11_0_0 0
B2_11_0_0 0
B1_11_1_0 0
B2_11_1_0 0
B1_11_2_0 0
B2_11_2_0 0
B1_11_3_0 0
B2_11_3_0 0
B1_11_4_0 0
B2_11_4_0 0
B1_11_5_0 0
B2_11_5_0 0
B1_11_6_0 0
B2_11_6_0 0
B1_11_7_0 0
B2_11_7_0 0
B1_11_8_0 0
B2_11_8_0 0
B1_11_9_0 0
B2_11_9_0 0
B1_11_10_0 0
B2_11_10_0 0
B1_11_12_0 0
B2_11_12_0 0
B1_11_13_0 0
B2_11_13_0 0
B1_11_14_0 0
B2_11_14_0 0
B1_11_15_0 1
B2_11_15_0 1
B1_11_16_0 0
B2_11_16_0 0
B1_12_0_0 0
B2_12_0_0 0
B1_12_1_0 0
B2_12_1_0 0
B1_12_2_0 0
B2_12_2_0 0
B1_12_3_0 0
B2_12_3_0 0
B1_12_4_0 0
B2_12_4_0 0
B1_12_5_0 0
B2_12_5_0 0
B1_12_6_0 0
B2_12_6_0 0
B1_12_7_0 0
B2_12_7_0 0
B1_12_8_0 0
B2_12_8_0 0
B1_12_9_0 0
B2_12_9_0 0
B1_12_10_0 0
B2_12_10_0 0
B1_12_11_0 0
B2_12_11_0 0
B1_12_13_0 0
B2_12_13_0 0
B1_12_14_0 0
B2_12_14_0 0
B1_12_15_0 0
B2_12_15_0 0
B1_12_16_0 0
B2_12_16_0 0
B1_13_0_0 0
B2_13_0_0 0
B1_13_1_0 0
B2_13_1_0 0
B1_13_2_0 0
B2_13_2_0 0
B1_13_3_0 0
B2_13_3_0 0
B1_13_4_0 0
B2_13_4_0 0
B1_13_5_0 0
B2_13_5_0 0
B1_13_6_0 0
B2_13_6_0 0
B1_13_7_0 0
B2_13_7_0 0
B1_13_8_0 0
B2_13_8_0 0
B1_13_9_0 0
B2_13_9_0 0
B1_13_10_0 0
B2_13_10_0 0
B1_13_11_0 0
B2_13_11_0 0
B1_13_12_0 0
B2_13_12_0 0
B1_13_14_0 0
B2_13_14_0 0
B1_13_15_0 1
B2_13_15_0 1
B1_13_16_0 0
B2_13_16_0 0
B1_14_0_0 0
B2_14_0_0 0
B1_14_1_0 0
B2_14_1_0 0
B1_14_2_0 0
B2_14_2_0 0
B1_14_3_0 0
B2_14_3_0 0
B1_14_4_0 0
B2_14_4_0 0
B1_14_5_0 0
B2_14_5_0 0
B1_14_6_0 0
B2_14_6_0 0
B1_14_7_0 0
B2_14_7_0 0
B1_14_8_0 0
B2_14_8_0 0
B1_14_9_0 0
B2_14_9_0 0
B1_14_10_0 0
B2_14_10_0 0
B1_14_11_0 0
B2_14_11_0 0
B1_14_12_0 0
B2_14_12_0 0
B1_14_13_0 0
B2_14_13_0 0
B1_14_15_0 0
B2_14_15_0 0
B1_14_16_0 0
B2_14_16_0 0
B1_15_0_0 0
B2_15_0_0 0
B1_15_1_0 0
B2_15_1_0 0
B1_15_2_0 0
B2_15_2_0 0
B1_15_3_0 0
B2_15_3_0 0
B1_15_4_0 0
B2_15_4_0 0
B1_15_5_0 0
B2_15_5_0 0
B1_15_6_0 0
B2_15_6_0 0
B1_15_7_0 0
B2_15_7_0 0
B1_15_8_0 0
B2_15_8_0 0
B1_15_9_0 0
B2_15_9_0 0
B1_15_10_0 0
B2_15_10_0 0
B1_15_11_0 0
B2_15_11_0 0
B1_15_12_0 0
B2_15_12_0 0
B1_15_13_0 0
B2_15_13_0 0
B1_15_14_0 0
B2_15_14_0 0
B1_15_16_0 0
B2_15_16_0 0
B1_16_0_0 0
B2_16_0_0 0
B1_16_1_0 0
B2_16_1_0 0
B1_16_2_0 0
B2_16_2_0 0
B1_16_3_0 0
B2_16_3_0 0
B1_16_4_0 0
B2_16_4_0 0
B1_16_5_0 0
B2_16_5_0 0
B1_16_6_0 0
B2_16_6_0 0
B1_16_7_0 0
B2_16_7_0 0
B1_16_8_0 0
B2_16_8_0 0
B1_16_9_0 0
B2_16_9_0 0
B1_16_10_0 0
B2_16_10_0 0
B1_16_11_0 0
B2_16_11_0 0
B1_16_12_0 0
B2_16_12_0 0
B1_16_13_0 0
B2_16_13_0 0
B1_16_14_0 0
B2_16_14_0 0
B1_16_15_0 0
B2_16_15_0 0
B1_0_1_1 0
B2_0_1_1 0
B1_0_2_1 0
B2_0_2_1 0
B1_0_3_1 0
B2_0_3_1 0
B1_0_4_1 0
B2_0_4_1 0
B1_0_5_1 0
B2_0_5_1 0
B1_0_6_1 0
B2_0_6_1 0
B1_0_7_1 0
B2_0_7_1 0
B1_0_8_1 0
B2_0_8_1 0
B1_0_9_1 0
B2_0_9_1 0
B1_0_10_1 0
B2_0_10_1 0
B1_0_11_1 0
B2_0_11_1 0
B1_0_12_1 0
B2_0_12_1 0
B1_0_13_1 0
B2_0_13_1 0
B1_0_14_1 0
B2_0_14_1 0
B1_0_15_1 0
B2_0_15_1 0
B1_0_16_1 0
B2_0_16_1 0
B1_1_0_1 0
B2_1_0_1 0
B1_1_2_1 0
B2_1_2_1 0
B1_1_3_1 0
B2_1_3_1 0
B1_1_4_1 0
B2_1_4_1 0
B1_1_5_1 0
B2_1_5_1 0
B1_1_6_1 0
B2_1_6_1 0
B1_1_7_1 0
B2_1_7_1 0
B1_1_8_1 0
B2_1_8_1 0
B1_1_9_1 0
B2_1_9_1 0
B1_1_10_1 0
B2_1_10_1 0
B1_1_11_1 0
B2_1_11_1 0
B1_1_12_1 0
B2_1_12_1 0
B1_1_13_1 0
B2_1_13_1 0
B1_1_14_1 0
B2_1_14_1 0
B1_1_15_1 0
B2_1_15_1 0
B1_1_16_1 0
B2_1_16_1 0
B1_2_0_1 0
B2_2_0_1 0
B1_2_1_1 0
B2_2_1_1 0
B1_2_3_1 0
B2_2_3_1 0
B1_2_4_1 0
B2_2_4_1 0
B1_2_5_1 0
B2_2_5_1 0
B1_2_6_1 0
B2_2_6_1 0
B1_2_7_1 0
B2_2_7_1 0
B1_2_8_1 0
B2_2_8_1 0
B1_2_9_1 0
B2_2_9_1 0
B1_2_10_1 0
B2_2_10_1 0
B1_2_11_1 0
B2_2_11_1 0
B1_2_12_1 0
B2_2_12_1 0
B1_2_13_1 0
B2_2_13_1 0
B1_2_14_1 0
B2_2_14_1 0
B1_2_15_1 0
B2_2_15_1 0
B1_2_16_1 0
B2_2_16_1 0
B1_3_0_1 0
B2_3_0_1 0
B1_3_1_1 0
B2_3_1_1 0
B1_3_2_1 0
B2_3_2_1 0
B1_3_4_1 0
B2_3_4_1 0
B1_3_5_1 0
B2_3_5_1 0
B1_3_6_1 1
B2_3_6_1 1
B1_3_7_1 0
B2_3_7_1 0
B1_3_8_1 0
B2_3_8_1 0
B1_3_9_1 0
B2_3_9_1 0
B1_3_10_1 0
B2_3_10_1 0
B1_3_11_1 0
B2_3_11_1 0
B1_3_12_1 0
B2_3_12_1 0
B1_3_13_1 0
B2_3_13_1 0
B1_3_14_1 0
B2_3_14_1 0
B1_3_15_1 0
B2_3_15_1 0
B1_3_16_1 0
B2_3_16_1 0
B1_4_0_1 0
B2_4_0_1 0
B1_4_1_1 0
B2_4_1_1 0
B1_4_2_1 0
B2_4_2_1 0
B1_4_3_1 0
B2_4_3_1 0
B1_4_5_1 0
B2_4_5_1 0
B1_4_6_1 0
B2_4_6_1 0
B1_4_7_1 0
B2_4_7_1 0
B1_4_8_1 0
B2_4_8_1 0
B1_4_9_1 0
B2_4_9_1 0
B1_4_10_1 0
B2_4_10_1 0
B1_4_11_1 0
B2_4_11_1 0
B1_4_12_1 0
B2_4_12_1 0
B1_4_13_1 0
B2_4_13_1 0
B1_4_14_1 0
B2_4_14_1 0
B1_4_15_1 0
B2_4_15_1 0
B1_4_16_1 0
B2_4_16_1 0
B1_5_0_1 0
B2_5_0_1 0
B1_5_1_1 0
B2_5_1_1 0
B1_5_2_1 0
B2_5_2_1 0
B1_5_3_1 0
B2_5_3_1 0
B1_5_4_1 0
B2_5_4_1 0
B1_5_6_1 0
B2_5_6_1 0
B1_5_7_1 1
B2_5_7_1 1
B1_5_8_1 0
B2_5_8_1 0
B1_5_9_1 0
B2_5_9_1 0
B1_5_10_1 0
B2_5_10_1 0
B1_5_11_1 0
B2_5_11_1 0
B1_5_12_1 0
B2_5_12_1 0
B1_5_13_1 0
B2_5_13_1 0
B1_5_14_1 0
B2_5_14_1 0
B1_5_15_1 0
B2_5_15_1 0
B1_5_16_1 0
B2_5_16_1 0
B1_6_0_1 0
B2_6_0_1 0
B1_6_1_1 0
B2_6_1_1 0
B1_6_2_1 0
B2_6_2_1 0
B1_6_3_1 0
B2_6_3_1 0
B1_6_4_1 0
B2_6_4_1 0
B1_6_5_1 0
B2_6_5_1 0
B1_6_7_1 0
B2_6_7_1 0
B1_6_8_1 0
B2_6_8_1 0
B1_6_9_1 0
B2_6_9_1 0
B1_6_10_1 0
B2_6_10_1 0
B1_6_11_1 0
B2_6_11_1 0
B1_6_12_1 0
B2_6_12_1 0
B1_6_13_1 0
B2_6_13_1 0
B1_6_14_1 0
B2_6_14_1 0
B1_6_15_1 0
B2_6_15_1 0
B1_6_16_1 0
B2_6_16_1 0
B1_7_0_1 0
B2_7_0_1 0
B1_7_1_1 0
B2_7_1_1 0
B1_7_2_1 0
B2_7_2_1 0
B1_7_3_1 0
B2_7_3_1 0
B1_7_4_1 0
B2_7_4_1 0
B1_7_5_1 0
B2_7_5_1 0
B1_7_6_1 0
B2_7_6_1 0
B1_7_8_1 0
B2_7_8_1 0
B1_7_9_1 0
B2_7_9_1 0
B1_7_10_1 0
B2_7_10_1 0
B1_7_11_1 0
B2_7_11_1 0
B1_7_12_1 0
B2_7_12_1 0
B1_7_13_1 0
B2_7_13_1 0
B1_7_14_1 0
B2_7_14_1 0
B1_7_15_1 0
B2_7_15_1 0
B1_7_16_1 0
B2_7_16_1 0
B1_8_0_1 0
B2_8_0_1 0
B1_8_1_1 0
B2_8_1_1 0
B1_8_2_1 0
B2_8_2_1 0
B1_8_3_1 0
B2_8_3_1 0
B1_8_4_1 0
B2_8_4_1 0
B1_8_5_1 0
B2_8_5_1 0
B1_8_6_1 0
B2_8_6_1 0
B1_8_7_1 0
B2_8_7_1 0
B1_8_9_1 0
B2_8_9_1 0
B1_8_10_1 0
B2_8_10_1 0
B1_8_11_1 0
B2_8_11_1 0
B1_8_12_1 0
B2_8_12_1 0
B1_8_13_1 0
B2_8_13_1 0
B1_8_14_1 0
B2_8_14_1 0
B1_8_15_1 0
B2_8_15_1 0
B1_8_16_1 0
B2_8_16_1 0
B1_9_0_1 0
B2_9_0_1 0
B1_9_1_1 0
B2_9_1_1 0
B1_9_2_1 0
B2_9_2_1 0
B1_9_3_1 0
B2_9_3_1 0
B1_9_4_1 0
B2_9_4_1 0
B1_9_5_1 0
B2_9_5_1 0
B1_9_6_1 0
B2_9_6_1 0
B1_9_7_1 1
B2_9_7_1 1
B1_9_8_1 0
B2_9_8_1 0
B1_9_10_1 0
B2_9_10_1 0
B1_9_11_1 0
B2_9_11_1 0
B1_9_12_1 0
B2_9_12_1 0
B1_9_13_1 0
B2_9_13_1 0
B1_9_14_1 0
B2_9_14_1 0
B1_9_15_1 0
B2_9_15_1 0
B1_9_16_1 0
B2_9_16_1 0
B1_10_0_1 0
B2_10_0_1 0
B1_10_1_1 0
B2_10_1_1 0
B1_10_2_1 0
B2_10_2_1 0
B1_10_3_1 0
B2_10_3_1 0
B1_10_4_1 0
B2_10_4_1 0
B1_10_5_1 0
B2_10_5_1 0
B1_10_6_1 0
B2_10_6_1 0
B1_10_7_1 0
B2_10_7_1 0
B1_10_8_1 0
B2_10_8_1 0
B1_10_9_1 0
B2_10_9_1 0
B1_10_11_1 0
B2_10_11_1 0
B1_10_12_1 0
B2_10_12_1 0
B1_10_13_1 0
B2_10_13_1 0
B1_10_14_1 0
B2_10_14_1 0
B1_10_15_1 0
B2_10_15_1 0
B1_10_16_1 0
B2_10_16_1 0
B1_11_0_1 0
B2_11_0_1 0
B1_11_1_1 0
B2_11_1_1 0
B1_11_2_1 0
B2_11_2_1 0
B1_11_3_1 0
B2_11_3_1 0
B1_11_4_1 0
B2_11_4_1 0
B1_11_5_1 0
B2_11_5_1 0
B1_11_6_1 0
B2_11_6_1 0
B1_11_7_1 0
B2_11_7_1 0
B1_11_8_1 0
B2_11_8_1 0
B1_11_9_1 0
B2_11_9_1 0
B1_11_10_1 0
B2_11_10_1 0
B1_11_12_1 0
B2_11_12_1 0
B1_11_13_1 0
B2_11_13_1 0
B1_11_14_1 0
B2_11_14_1 0
B1_11_15_1 0
B2_11_15_1 0
B1_11_16_1 0
B2_11_16_1 0
B1_12_0_1 0
B2_12_0_1 0
B1_12_1_1 0
B2_12_1_1 0
B1_12_2_1 0
B2_12_2_1 0
B1_12_3_1 0
B2_12_3_1 0
B1_12_4_1 0
B2_12_4_1 0
B1_12_5_1 0
B2_12_5_1 0
B1_12_6_1 0
B2_12_6_1 0
B1_12_7_1 0
B2_12_7_1 0
B1_12_8_1 0
B2_12_8_1 0
B1_12_9_1 0
B2_12_9_1 0
B1_12_10_1 0
B2_12_10_1 0
B1_12_11_1 0
B2_12_11_1 0
B1_12_13_1 0
B2_12_13_1 0
B1_12_14_1 0
B2_12_14_1 0
B1_12_15_1 0
B2_12_15_1 0
B1_12_16_1 0
B2_12_16_1 0
B1_13_0_1 0
B2_13_0_1 0
B1_13_1_1 0
B2_13_1_1 0
B1_13_2_1 0
B2_13_2_1 0
B1_13_3_1 0
B2_13_3_1 0
B1_13_4_1 0
B2_13_4_1 0
B1_13_5_1 0
B2_13_5_1 0
B1_13_6_1 0
B2_13_6_1 0
B1_13_7_1 0
B2_13_7_1 0
B1_13_8_1 0
B2_13_8_1 0
B1_13_9_1 0
B2_13_9_1 0
B1_13_10_1 0
B2_13_10_1 0
B1_13_11_1 0
B2_13_11_1 0
B1_13_12_1 0
B2_13_12_1 0
B1_13_14_1 0
B2_13_14_1 0
B1_13_15_1 0
B2_13_15_1 0
B1_13_16_1 0
B2_13_16_1 0
B1_14_0_1 0
B2_14_0_1 0
B1_14_1_1 0
B2_14_1_1 0
B1_14_2_1 0
B2_14_2_1 0
B1_14_3_1 0
B2_14_3_1 0
B1_14_4_1 0
B2_14_4_1 0
B1_14_5_1 0
B2_14_5_1 0
B1_14_6_1 0
B2_14_6_1 0
B1_14_7_1 0
B2_14_7_1 0
B1_14_8_1 0
B2_14_8_1 0
B1_14_9_1 0
B2_14_9_1 0
B1_14_10_1 0
B2_14_10_1 0
B1_14_11_1 0
B2_14_11_1 0
B1_14_12_1 0
B2_14_12_1 0
B1_14_13_1 0
B2_14_13_1 0
B1_14_15_1 0
B2_14_15_1 0
B1_14_16_1 0
B2_14_16_1 0
B1_15_0_1 0
B2_15_0_1 0
B1_15_1_1 0
B2_15_1_1 0
B1_15_2_1 0
B2_15_2_1 0
B1_15_3_1 0
B2_15_3_1 0
B1_15_4_1 0
B2_15_4_1 0
B1_15_5_1 0
B2_15_5_1 0
B1_15_6_1 0
B2_15_6_1 0
B1_15_7_1 0
B2_15_7_1 0
B1_15_8_1 0
B2_15_8_1 0
B1_15_9_1 0
B2_15_9_1 0
B1_15_10_1 0
B2_15_10_1 0
B1_15_11_1 0
B2_15_11_1 0
B1_15_12_1 0
B2_15_12_1 0
B1_15_13_1 0
B2_15_13_1 0
B1_15_14_1 0
B2_15_14_1 0
B1_15_16_1 0
B2_15_16_1 0
B1_16_0_1 0
B2_16_0_1 0
B1_16_1_1 0
B2_16_1_1 0
B1_16_2_1 0
B2_16_2_1 0
B1_16_3_1 0
B2_16_3_1 0
B1_16_4_1 0
B2_16_4_1 0
B1_16_5_1 0
B2_16_5_1 0
B1_16_6_1 0
B2_16_6_1 0
B1_16_7_1 0
B2_16_7_1 0
B1_16_8_1 0
B2_16_8_1 0
B1_16_9_1 0
B2_16_9_1 0
B1_16_10_1 0
B2_16_10_1 0
B1_16_11_1 0
B2_16_11_1 0
B1_16_12_1 0
B2_16_12_1 0
B1_16_13_1 0
B2_16_13_1 0
B1_16_14_1 0
B2_16_14_1 0
B1_16_15_1 0
B2_16_15_1 0
x_0 101
y_0 0
x_1 29
y_1 0
x_2 76
y_2 0
x_3 201
y_3 34
x_4 244
y_4 0
x_5 39
y_5 44
x_6 187
y_6 0
x_7 0
y_7 0
x_8 268
y_8 0
x_9 0
y_9 44
x_10 274
y_10 34
x_11 244
y_11 34
x_12 1.4799999499999998e+02
y_12 0
x_13 213
y_13 34
x_14 53
y_14 0
x_15 213
y_15 0
x_16 0
y_16 0
